88
0 81 34 10 3 53 41 42 20 82 
28 17 55 8 37 86 87 51 27 73 
7 1 45 71 68 59 62 13 35 30 
6 15 64 32 54 43 39 84 4 12 
50 63 49 65 26 31 66 83 44 22 
29 58 74 60 69 23 9 11 38 61 
5 25 33 52 75 18 57 46 78 85 
56 47 76 48 77 21 16 36 79 67 
80 40 14 24 70 2 72 19 
